NAME : tsp40_25.191.tour
COMMENT : Length = 191
COMMENT : Found by LKH [Keld Helsgaun]
TYPE : TOUR
DIMENSION : 40
TOUR_SECTION
1
11
36
8
12
35
38
4
18
26
9
17
27
19
40
39
2
16
20
13
7
32
33
25
28
22
24
29
31
10
6
5
34
3
21
23
30
15
14
37
-1
EOF
